p1:
9428
1 1 1 1 1 1 1 1 1 1 
4 8 1 6 3 8 2 4 4 1 9 8 3 2 8 3 4 0 9 7 3 0 6 4 2 5 1 5 0 5 2 6 0 3 9 4 4 3 0 4 1 8 1 5 7 0 4 0 4 0 
p2:
8352
1 1 1 1 1 1 1 1 1 1 
7 5 1 6 3 8 2 4 4 1 9 8 3 2 8 3 4 0 9 7 3 8 6 4 2 5 1 5 0 5 2 6 0 3 9 4 4 3 0 4 1 8 1 5 7 0 4 0 4 0 
p3:
9962
1 1 1 1 1 1 1 1 1 1 
8 2 1 6 3 8 2 4 4 1 9 0 3 2 8 3 4 0 9 7 3 7 6 4 2 5 1 5 0 5 2 6 0 3 9 4 4 3 0 4 1 8 1 5 7 0 4 0 4 0 
p4:
12234
1 1 1 1 1 1 1 1 1 1 
8 8 1 6 3 3 2 4 4 1 9 0 3 2 8 3 4 0 9 7 3 7 6 4 2 5 1 5 0 5 2 6 0 3 9 4 4 3 0 4 1 8 1 5 7 0 4 0 4 0 
p5:
9403
1 1 1 1 1 1 1 1 1 1 
8 8 1 6 3 8 2 4 7 1 9 8 3 2 8 3 4 0 9 7 3 8 6 4 2 5 1 5 0 5 2 6 0 3 9 4 4 1 0 4 1 8 1 5 7 0 9 0 4 3 
p6:
8304
1 1 1 1 1 1 1 1 1 1 
8 8 1 6 3 8 2 4 4 1 9 8 3 2 8 3 4 0 9 7 3 4 6 9 2 5 1 5 0 5 2 6 0 3 9 4 4 3 0 4 1 8 1 5 7 8 7 0 2 0 
p7:
10437
1 1 1 1 1 1 1 1 1 1 
8 8 1 6 3 8 2 4 4 1 9 8 3 2 8 3 4 5 9 7 3 8 6 7 2 5 1 5 0 5 2 6 0 3 9 4 4 3 0 2 1 8 1 5 7 0 4 0 4 0 
p8:
12292
1 1 1 1 1 1 1 1 1 1 
8 8 1 6 3 8 2 4 4 1 9 8 3 2 8 1 4 0 9 7 3 8 6 7 2 5 1 5 0 5 2 6 0 3 9 4 4 3 0 4 1 8 1 5 7 0 6 0 4 3 
p9:
8910
1 1 1 1 1 1 1 0 1 1 
8 8 1 6 3 8 2 4 4 1 9 8 3 2 8 3 4 0 9 4 3 8 6 4 2 5 1 5 0 5 2 6 0 3 9 4 4 3 0 4 1 8 1 5 4 0 6 0 4 0 
p10:
7726
1 1 1 1 1 1 1 1 1 1 
8 8 1 6 3 8 2 4 4 1 9 8 3 2 8 3 4 0 9 7 3 8 6 4 2 5 1 5 0 5 2 6 0 3 9 4 4 3 0 4 1 8 1 5 7 0 4 0 4 0 
p11:
9653
1 1 1 1 1 1 1 0 1 1 
8 8 1 6 3 8 2 4 4 1 9 8 3 2 8 3 4 0 9 4 3 8 6 4 2 5 1 5 0 5 2 6 0 3 9 4 4 3 0 4 1 8 1 5 2 0 4 0 4 0 
p12:
11726
1 1 1 1 1 1 1 1 1 1 
8 8 1 6 3 8 2 4 4 1 9 8 3 2 8 3 4 0 9 7 3 8 6 4 2 5 1 5 0 5 2 6 0 3 9 4 4 3 0 4 1 8 1 5 7 0 4 0 4 0 
p13:
12009
1 1 1 1 1 1 1 0 1 1 1 1 1 0 0 1 1 1 1 1 
16 12 10 10 1 18 17 18 9 17 15 4 1 6 2 3 15 10 4 9 12 15 15 19 6 17 16 17 1 17 18 3 2 16 3 10 11 19 19 15 6 0 5 0 8 5 18 10 19 9 
p14:
8840
1 1 1 1 1 1 1 0 1 1 1 1 1 1 1 1 1 1 0 1 
16 12 10 10 1 13 17 13 14 17 15 4 1 6 13 3 15 10 4 9 12 15 15 19 6 17 16 17 1 17 13 15 2 16 3 10 11 19 19 13 6 0 5 0 8 5 14 10 19 9 
p15:
12502
1 1 1 0 1 0 1 0 1 1 1 0 0 1 1 1 1 1 1 1 
16 17 10 10 1 18 17 13 14 17 15 4 1 6 13 1 15 10 4 9 16 15 15 19 6 17 16 17 1 17 13 13 2 16 6 10 14 19 19 13 6 0 0 0 8 13 14 10 19 9 
p16:
16551
0 0 0 1 1 1 1 0 1 0 1 1 1 1 1 1 1 1 0 0 
16 12 10 10 5 11 17 13 14 17 15 4 5 6 13 3 15 10 4 8 12 15 15 8 6 17 16 17 8 17 13 14 13 16 3 10 11 3 11 13 6 3 5 13 8 5 14 10 11 6 
p17:
11373
1 1 0 1 1 1 1 1 1 1 1 0 1 1 1 1 1 1 0 1 
16 12 10 10 1 12 17 13 14 17 15 4 1 6 13 3 15 10 4 9 12 15 15 19 6 17 16 17 1 17 13 7 0 16 3 10 4 19 19 13 6 0 5 0 8 5 14 10 19 9 
p18:
8888
1 0 0 1 1 1 1 1 0 1 1 1 1 1 1 1 1 1 1 1 
16 12 10 10 12 18 17 13 14 17 15 4 15 6 13 3 15 10 4 9 12 15 15 19 6 17 16 17 11 17 13 7 19 16 3 10 11 19 19 13 6 0 5 0 11 5 14 10 19 9 
p19:
12173
1 1 1 1 1 1 1 0 0 0 1 0 1 1 0 1 1 1 1 1 
16 12 10 10 1 18 17 13 3 17 15 4 1 6 13 3 15 10 4 17 12 15 15 19 6 1 16 17 1 17 13 0 2 16 3 10 17 19 19 13 6 0 5 0 12 5 12 10 19 3 
p20:
17267
1 1 0 0 0 0 0 0 1 0 1 1 1 1 1 1 1 1 1 1 
16 12 10 10 1 18 17 13 14 17 19 13 1 10 13 16 15 10 1 0 12 10 15 19 16 17 16 17 1 17 13 18 15 16 0 10 11 19 19 13 18 0 15 0 8 15 14 14 19 15 
p21:
11025
1 1 0 0 1 1 1 0 0 1 1 1 1 1 1 1 0 1 1 1 
15 12 10 10 1 18 17 13 14 17 15 4 1 6 13 11 15 10 4 9 12 15 15 19 6 17 5 17 1 17 13 18 18 0 14 10 11 19 19 13 6 0 5 0 17 5 14 10 19 9 
p22:
9069
0 1 0 1 1 1 1 1 0 1 1 1 1 1 1 1 1 1 0 1 
16 12 10 10 1 7 17 13 14 17 15 4 1 6 13 3 15 10 4 9 12 15 15 19 6 17 16 17 1 17 13 7 5 16 3 10 11 19 19 13 6 7 5 10 6 5 14 10 19 9 
p23:
12876
1 1 0 0 1 1 1 0 0 1 1 1 1 1 1 0 1 1 1 1 
16 12 10 10 1 18 17 13 14 17 16 4 1 6 13 11 13 10 4 9 12 1 6 19 6 17 16 17 1 17 13 1 0 16 17 10 11 19 19 13 6 0 5 0 6 5 14 10 19 9 
p24:
15606
0 1 0 0 0 1 1 1 1 1 1 1 0 1 0 1 1 1 0 1 
16 11 10 10 1 5 17 13 11 17 15 15 1 6 13 10 15 10 15 9 13 15 15 19 6 17 16 17 1 17 13 7 17 16 8 10 11 19 19 13 6 19 5 5 8 5 7 10 19 9 
p25:
18892
1 0 1 1 0 1 0 1 1 1 0 1 0 1 1 1 1 1 0 1 1 1 0 0 1 1 1 1 1 1 
20 11 13 2 20 5 2 9 14 17 21 16 8 20 3 14 14 17 5 11 2 0 5 3 5 8 19 24 5 24 5 25 29 25 20 20 24 15 0 14 0 14 15 8 24 14 0 13 27 8 29 14 14 5 13 20 17 11 0 14 0 5 20 11 11 11 9 0 5 9 20 14 11 5 24 8 26 20 14 24 20 7 13 17 17 17 17 25 20 5 2 24 17 11 17 5 2 2 21 16 8 27 27 25 2 29 17 11 14 28 14 29 2 11 11 21 24 24 24 24 5 8 25 13 16 0 5 9 0 27 0 11 24 5 8 14 7 5 20 17 0 8 20 14 8 25 25 5 2 5 
p26:
15121
1 0 1 0 1 1 1 1 1 1 0 1 0 1 1 1 1 1 0 1 1 0 1 0 1 1 0 1 0 1 
20 11 13 0 20 5 2 9 14 17 22 16 8 20 19 14 14 2 5 11 2 0 5 4 5 8 19 24 5 24 5 25 6 25 20 20 24 15 0 14 0 14 15 8 24 14 0 13 27 8 29 14 14 5 13 20 17 11 0 14 0 5 20 11 11 11 9 0 22 9 20 6 11 17 24 8 15 20 14 24 20 7 13 17 17 17 17 4 20 5 2 24 27 11 17 5 2 29 14 16 8 19 17 25 2 29 4 11 14 8 14 2 2 11 11 27 24 24 24 24 5 8 25 13 16 0 5 9 0 24 0 11 24 5 8 14 7 5 20 17 0 8 20 14 8 25 25 5 2 5 
p27:
19748
1 0 1 1 0 1 1 1 1 1 0 1 1 1 1 1 0 1 0 1 1 0 1 0 1 1 0 1 1 0 
20 11 13 2 20 5 2 9 14 17 22 20 8 20 3 14 14 17 5 11 2 0 5 3 5 8 19 24 5 24 5 25 6 25 20 20 24 15 0 14 0 14 15 8 24 14 0 13 27 8 25 14 14 5 13 20 17 11 0 14 0 5 20 11 11 11 9 0 5 9 20 6 11 14 24 8 20 20 14 24 20 7 13 17 3 7 17 0 20 5 2 24 11 11 17 5 2 2 27 20 8 17 17 25 2 7 17 11 14 28 14 11 2 11 11 22 24 24 24 24 5 8 25 13 28 0 5 9 0 12 0 11 24 5 8 14 7 5 20 17 0 8 20 14 8 25 25 5 2 5 
p28:
23937
1 1 1 1 1 1 0 1 1 1 0 1 0 1 1 1 1 1 0 1 1 1 0 0 1 1 0 0 0 1 
20 11 13 2 20 5 14 9 14 17 2 16 8 20 3 14 14 17 5 11 2 0 5 3 5 8 19 24 5 24 5 25 21 25 20 20 24 15 0 14 0 14 15 8 24 14 0 13 0 8 29 14 14 5 13 20 17 11 0 14 0 5 20 11 11 11 9 0 5 9 20 16 11 25 24 8 4 20 14 24 20 7 13 17 19 17 17 4 20 5 2 24 19 11 17 5 2 2 21 16 8 17 17 25 2 29 4 11 14 4 14 1 2 11 11 21 24 24 24 24 5 8 25 13 16 0 5 9 0 24 0 11 24 5 8 14 7 5 20 17 0 8 20 14 8 25 25 5 2 5 
p29:
17898
1 0 1 1 0 1 1 0 1 1 0 1 0 1 1 1 1 1 0 1 1 1 1 0 1 1 1 1 1 0 
20 11 13 2 20 5 2 9 14 17 22 16 8 20 3 14 14 17 5 11 2 0 11 3 5 8 19 24 5 24 24 25 6 25 20 20 24 15 0 14 0 14 15 8 24 14 0 13 27 8 16 14 14 5 13 20 17 11 0 14 0 5 20 11 11 11 9 0 25 9 20 6 11 17 24 8 26 20 14 24 20 2 13 17 17 17 17 17 20 5 2 24 17 11 17 5 2 2 21 16 8 17 17 25 2 25 2 11 14 28 14 11 2 11 11 21 24 24 24 24 5 8 25 13 16 0 5 9 0 26 0 11 24 5 8 14 17 5 20 17 0 8 20 14 8 25 25 5 2 5 
p30:
14943
1 1 1 1 0 1 0 1 1 1 0 1 0 1 1 1 1 1 0 1 1 1 1 0 1 1 0 0 0 0 
20 11 13 2 20 5 2 9 14 17 22 16 8 20 3 14 14 17 25 11 2 0 5 3 5 8 19 24 5 24 5 25 2 25 20 20 24 15 0 14 0 14 15 8 24 14 0 13 2 8 14 14 14 5 13 20 17 11 0 14 0 5 20 11 11 11 9 0 5 9 20 0 11 17 24 8 21 20 11 24 20 7 13 17 17 17 17 0 20 5 2 24 17 11 17 5 2 2 21 16 8 17 17 25 2 11 17 11 14 13 14 1 2 11 11 21 24 24 24 24 5 8 25 13 16 0 5 24 0 22 0 11 24 22 8 14 7 5 20 17 0 8 20 14 8 25 25 5 2 5 
p31:
19165
1 1 1 1 1 1 0 1 1 1 0 1 0 1 1 1 1 1 0 1 1 0 0 0 1 1 0 1 0 1 
20 11 13 2 20 5 2 9 14 17 0 16 8 20 3 14 14 17 5 11 2 0 5 3 27 8 19 24 5 24 27 25 17 25 20 20 24 15 0 14 0 14 15 8 24 14 0 13 27 8 29 14 14 5 13 20 17 11 0 14 0 5 20 11 11 11 9 0 5 9 20 3 11 17 24 8 3 20 14 24 20 7 13 17 17 17 17 4 20 5 2 24 17 11 17 5 2 2 25 16 8 17 17 25 2 29 17 11 14 20 14 1 2 11 11 0 24 24 24 24 5 8 25 13 16 0 5 9 0 3 0 11 24 5 8 14 7 5 20 17 0 8 20 14 8 25 25 5 2 5 
p32:
24663
1 1 1 1 1 1 0 1 1 1 0 1 0 1 1 0 0 1 0 1 1 0 1 0 1 1 1 0 1 1 
13 11 13 2 20 5 2 9 14 17 22 11 8 20 3 14 14 17 5 11 2 0 5 3 24 8 19 24 5 24 7 25 29 25 20 20 24 7 0 14 0 14 17 8 24 14 0 13 11 8 29 14 14 5 13 20 17 11 0 14 0 5 20 11 11 11 9 0 5 9 20 29 11 17 24 8 26 20 14 24 20 7 13 17 17 17 17 4 20 5 2 24 17 11 17 5 2 2 20 20 8 17 17 25 2 29 17 11 14 28 14 1 2 11 11 19 24 24 24 24 5 8 25 13 19 0 5 9 0 4 0 11 24 5 8 14 7 5 20 17 0 8 20 14 8 25 25 5 2 5 
p33:
17087
1 1 1 1 1 1 0 1 1 1 0 1 1 1 1 1 1 1 0 0 1 0 0 0 1 1 0 0 0 1 
20 11 13 2 20 5 2 9 14 17 25 16 8 20 3 14 14 17 5 11 2 0 5 3 5 8 7 24 5 24 5 25 20 25 20 20 24 15 0 14 0 14 15 8 24 14 0 13 24 8 29 14 14 5 13 20 17 11 0 14 0 5 20 11 11 11 9 0 5 9 20 13 11 17 24 8 14 20 14 24 20 7 13 17 17 17 17 4 20 5 2 24 17 11 17 5 2 2 25 16 8 17 17 25 2 29 17 11 14 2 14 1 2 11 11 9 24 24 24 24 5 8 25 13 16 0 5 9 0 12 0 11 24 5 8 14 7 5 20 17 0 8 20 14 8 25 25 5 2 5 
p34:
14287
1 0 1 0 1 1 0 1 1 1 0 1 0 1 1 1 1 1 0 0 1 1 0 0 1 1 1 1 0 1 
20 11 13 2 20 5 2 9 14 17 24 16 8 20 14 14 14 17 5 11 2 0 5 4 5 8 7 24 5 24 5 25 8 25 20 20 24 15 0 14 0 14 15 8 24 14 0 13 27 8 29 14 14 5 13 20 17 11 11 14 0 5 20 11 11 11 9 0 5 9 20 8 11 17 24 8 26 20 14 24 20 7 13 17 17 17 17 4 20 5 2 24 17 11 17 24 2 2 21 16 8 17 17 25 2 29 17 11 14 2 14 25 2 11 11 21 24 24 24 24 5 8 25 13 16 0 5 9 0 0 0 11 24 5 8 14 7 5 20 17 0 8 20 14 8 25 25 5 2 5 
p35:
19167
1 1 1 1 0 1 1 1 1 1 0 1 0 1 1 1 1 1 0 1 1 1 0 0 1 1 0 0 1 1 
20 11 13 2 20 5 2 9 14 17 25 16 8 20 3 14 14 17 5 11 2 0 5 3 5 8 19 24 5 24 5 25 6 25 20 20 24 15 0 14 0 14 15 8 24 14 0 13 25 8 29 14 14 5 13 20 17 11 0 14 0 5 20 11 11 11 9 0 5 9 20 6 11 17 24 8 0 20 14 24 20 7 13 17 17 17 17 29 20 5 2 24 17 11 17 5 2 2 21 16 8 17 17 25 2 29 17 11 14 28 14 1 2 11 11 21 24 24 24 24 5 8 25 13 16 0 5 9 0 1 0 11 24 5 8 14 7 5 20 17 0 8 20 14 8 25 25 5 2 5 
p36:
23563
1 0 1 1 1 1 0 1 1 1 0 1 0 1 1 0 1 1 0 1 1 1 0 0 1 1 0 0 1 1 
20 11 13 2 20 5 2 9 14 17 21 16 8 20 3 14 14 17 5 11 2 0 5 3 5 8 19 24 5 24 5 25 3 25 20 20 24 19 0 14 0 14 24 8 24 14 0 13 24 8 29 14 14 5 13 20 17 11 0 14 0 5 20 11 11 11 9 0 5 9 20 29 11 17 24 8 14 20 14 24 20 7 13 17 17 17 17 4 20 5 2 24 17 11 17 5 2 2 21 16 8 17 17 25 2 29 17 11 14 28 14 7 2 11 11 21 24 24 24 24 5 8 25 13 16 0 5 9 0 8 0 11 24 5 8 14 7 5 20 17 0 8 20 14 8 25 25 5 2 5 
p37:
16829
1 0 1 0 1 1 0 1 1 1 0 1 0 1 1 1 1 1 0 0 1 0 0 0 1 1 1 1 1 1 
20 11 13 2 20 5 2 9 14 17 28 16 8 20 7 14 14 17 5 11 2 0 5 29 5 8 2 24 5 24 5 25 8 25 20 20 24 15 0 14 0 14 15 8 24 14 0 13 27 8 29 14 14 5 13 20 17 11 0 14 0 5 20 11 11 11 9 0 24 9 20 28 11 17 24 8 26 20 14 24 20 7 13 17 17 17 17 4 20 5 2 24 17 11 17 5 2 2 17 16 8 17 17 25 2 29 17 11 14 28 14 28 2 11 11 28 24 24 24 24 5 8 25 13 16 0 5 9 0 2 0 11 24 5 8 14 7 5 20 17 0 8 20 14 8 25 25 5 2 5 
p38:
14943
1 0 1 1 0 1 0 1 1 1 0 1 0 1 1 1 1 1 0 1 1 1 0 0 1 1 0 1 1 1 
20 11 13 2 20 5 2 9 14 17 17 16 8 20 3 14 14 17 5 11 2 0 5 3 5 8 19 24 5 24 5 25 0 25 20 20 24 15 0 14 0 14 15 8 24 14 0 13 27 8 29 14 14 5 13 20 17 11 0 14 0 5 20 11 11 11 9 0 24 9 20 17 11 17 24 8 11 20 14 24 20 7 13 17 17 17 17 3 20 5 2 24 17 11 17 5 2 2 21 16 8 17 17 25 2 29 17 11 14 28 14 11 2 11 11 27 24 24 24 24 5 8 25 13 16 0 5 9 0 9 0 11 24 5 8 14 7 5 20 17 0 8 20 14 8 25 25 5 2 5 
p39:
19272
1 0 1 1 0 1 1 1 1 1 0 1 0 1 1 1 0 1 0 1 1 1 0 0 1 1 0 1 1 1 
20 11 13 2 20 5 2 9 14 17 13 2 8 20 3 14 14 17 5 11 2 0 5 3 5 8 19 24 5 24 5 25 6 25 20 20 24 15 0 14 0 14 15 8 24 14 0 13 27 8 29 14 14 5 13 20 17 11 11 14 0 5 20 11 11 11 9 0 5 9 20 6 11 17 24 8 17 20 14 24 20 7 13 17 17 17 17 17 20 5 2 24 17 11 17 5 2 2 21 24 8 17 17 25 2 29 17 11 14 28 14 27 2 11 11 21 24 24 24 24 5 8 25 13 7 0 5 9 0 11 0 11 24 5 8 14 7 5 20 17 0 8 20 14 8 25 25 5 2 5 
p40:
24137
1 0 1 0 0 1 1 1 1 1 0 1 0 1 1 1 0 1 0 1 1 1 0 1 1 1 0 1 1 1 
20 11 13 2 20 5 2 9 14 17 23 23 8 20 29 14 14 17 5 11 2 0 5 28 5 8 19 24 5 24 5 25 6 25 20 20 24 15 0 14 0 14 15 8 24 14 0 13 27 8 29 14 14 5 13 20 17 11 0 14 0 5 20 11 11 11 9 0 9 9 20 6 11 17 24 8 25 20 14 24 20 7 13 17 17 17 17 7 20 5 2 24 17 11 17 5 2 2 21 21 8 17 17 25 2 29 17 11 14 28 14 2 2 11 11 21 24 24 24 24 5 8 25 13 15 0 5 9 0 5 0 11 24 5 8 14 7 5 20 17 0 8 20 14 8 25 25 5 2 5 
p41:
7367
1 1 1 1 1 1 1 1 1 1 
5 6 4 1 7 9 3 7 8 8 4 2 2 6 2 7 7 3 0 6 6 1 4 1 6 5 5 4 8 5 8 0 0 0 3 9 2 6 6 9 2 7 3 3 3 5 0 5 6 4 1 1 6 6 1 7 2 8 8 8 0 0 1 5 0 6 6 6 4 4 0 4 4 0 7 7 3 2 2 5 7 2 9 2 9 9 9 9 9 9 
p42:
9709
1 1 0 1 0 1 1 1 1 1 1 1 1 1 1 0 1 1 1 1 
12 10 11 9 3 18 16 3 17 1 11 18 6 10 6 14 0 7 14 14 5 11 9 8 12 8 11 16 17 13 7 19 6 8 14 10 10 0 0 1 1 3 3 16 9 14 8 19 17 8 16 17 7 13 13 5 8 14 14 14 11 11 1 3 11 3 0 9 19 6 10 18 19 19 19 18 18 18 19 19 
p43:
10753
1 1 1 0 1 1 0 1 1 1 0 1 1 1 0 0 0 1 0 0 0 1 1 1 0 1 1 1 1 1 
17 22 21 27 25 22 26 21 27 29 5 23 1 9 2 11 8 12 12 7 25 26 22 17 17 13 29 0 29 4 5 2 2 13 0 22 7 12 21 11 4 12 28 23 5 25 26 17 17 11 21 0 9 7 8 29 22 1 2 29 5 27 1 29 27 28 1 27 28 29 
p44:
7887
1 1 1 1 1 1 1 1 1 1 
4 4 4 4 4 4 4 4 0 0 0 0 0 6 0 0 2 0 8 1 1 1 1 2 2 2 2 2 2 2 2 3 3 3 3 3 3 3 3 3 4 0 7 1 6 8 7 5 5 9 7 6 5 5 8 8 7 7 9 5 5 5 9 3 0 6 6 8 1 6 4 9 9 7 7 8 6 6 5 8 7 7 9 9 9 9 6 5 7 5 
p45:
9621
1 1 1 1 1 1 1 1 0 0 1 1 1 1 1 0 1 1 1 1 
0 0 0 0 0 0 0 1 1 1 1 6 6 6 6 2 2 3 2 3 2 4 4 4 4 4 4 4 4 5 5 5 5 5 5 5 5 5 0 0 2 3 11 12 18 16 19 7 6 16 17 13 11 16 18 19 14 10 10 7 12 19 16 17 13 13 11 12 7 10 18 12 13 17 14 17 19 16 10 7 
p46:
11275
1 1 1 0 1 1 1 1 1 1 1 1 1 0 1 1 0 1 1 0 0 1 1 0 0 0 1 1 1 0 
10 0 10 10 10 0 10 1 1 1 1 11 11 11 11 2 2 12 2 26 2 4 4 5 6 6 5 7 7 8 7 8 9 9 10 2 18 17 27 26 1 12 21 22 22 14 18 17 28 28 28 27 17 22 6 26 2 18 18 15 28 15 28 18 26 27 14 2 15 12 
p47:
6701
1 1 1 1 1 1 1 1 1 1 
0 0 0 0 0 0 0 0 0 0 1 5 1 1 1 3 1 2 2 2 2 2 2 2 2 2 2 3 3 3 3 3 3 3 3 4 4 4 4 4 4 4 4 4 4 4 4 5 5 5 5 5 5 5 6 6 6 6 6 6 6 6 7 7 6 7 6 0 7 7 7 7 7 8 8 8 7 8 2 8 8 8 9 4 9 9 2 9 9 9 
p48:
9480
1 1 1 1 1 1 1 1 1 0 0 1 1 1 1 1 0 1 1 1 
0 0 0 0 1 0 1 1 1 2 3 2 2 3 3 4 4 4 5 5 5 5 5 5 6 6 6 6 6 7 7 8 8 8 8 8 8 8 17 13 3 2 6 19 11 15 11 11 12 13 12 13 13 12 13 14 15 12 14 12 0 15 14 14 15 5 18 17 17 17 17 17 17 18 18 19 18 19 19 19 
p49:
11338
1 1 0 1 0 1 1 1 1 0 1 0 1 1 0 1 1 0 1 1 1 1 1 0 1 0 1 0 1 0 
0 1 1 3 1 26 28 3 3 5 3 5 7 6 6 6 7 7 7 7 7 7 1 10 8 12 10 12 12 3 13 13 13 18 15 15 16 16 10 16 26 16 20 19 18 19 18 20 21 18 21 18 0 22 26 16 22 24 24 26 16 26 6 26 6 5 28 22 28 28 
p50:
10524
1 1 1 1 1 1 1 1 0 1 
3 6 3 0 2 9 5 5 3 7 7 4 1 9 9 9 9 5 5 3 0 0 0 4 0 3 7 4 4 7 7 7 3 3 3 5 0 9 0 6 0 9 6 1 5 5 5 5 5 3 3 5 6 4 0 0 6 6 3 2 9 7 7 7 3 3 0 4 5 7 3 9 6 0 6 4 4 3 3 4 3 5 2 9 3 5 2 7 2 7 9 1 4 1 1 5 4 0 0 5 
p51:
10630
1 1 1 0 0 1 1 1 1 0 1 0 1 1 1 1 1 1 0 1 
15 6 19 10 12 8 5 16 15 1 5 7 6 13 6 13 12 16 2 15 0 0 10 14 14 14 1 16 19 7 1 1 17 19 15 5 13 13 10 0 0 13 0 13 16 5 5 5 5 17 15 2 0 14 14 10 6 6 13 12 13 5 1 5 15 15 10 19 7 7 15 0 0 0 10 19 19 19 19 0 19 5 16 12 13 13 6 8 12 1 13 16 13 7 7 1 6 13 12 13 
p52:
11317
0 1 1 1 1 1 1 1 1 1 
7 7 7 7 7 7 7 7 3 4 4 4 3 4 4 4 4 9 7 8 8 5 8 8 8 6 9 9 9 9 9 9 9 3 6 6 6 6 6 6 6 6 6 6 7 7 4 8 8 3 5 3 4 6 2 5 3 3 3 4 6 9 5 5 4 4 7 6 4 7 2 6 4 3 3 5 3 4 7 3 6 3 8 5 5 3 3 7 3 3 5 6 9 1 5 3 3 4 3 7 
p53:
12817
0 1 1 1 1 1 1 1 0 1 0 1 1 0 0 1 1 1 1 1 
5 5 5 5 5 5 5 5 19 19 19 7 7 7 7 7 7 12 4 12 12 15 19 12 12 9 9 9 9 9 18 12 9 9 18 18 18 18 18 18 18 18 18 18 5 5 7 12 12 15 15 4 7 18 6 11 3 3 1 6 18 2 15 11 7 18 5 18 6 5 17 18 6 3 3 15 3 6 6 2 4 19 18 15 15 3 1 6 15 1 2 2 17 5 2 17 1 6 1 16 
p54:
10195
1 1 1 1 1 1 1 1 1 1 
9 8 7 7 7 7 7 2 2 2 2 2 2 2 2 2 2 2 2 1 1 1 1 3 1 1 3 3 3 3 3 3 3 3 3 3 3 3 3 6 5 8 8 6 8 5 8 8 8 8 3 3 6 6 6 6 6 6 6 6 6 5 5 6 5 5 5 6 5 0 0 0 0 6 9 0 0 0 0 0 4 0 0 4 4 4 4 4 4 4 4 9 4 9 7 9 4 9 9 9 
p55:
11763
1 0 1 1 1 1 1 1 1 1 0 1 1 1 1 1 0 1 1 1 
17 17 12 17 19 4 4 4 8 8 8 8 2 8 6 8 2 2 8 12 7 6 12 6 12 19 12 12 6 6 6 14 14 6 6 6 6 6 6 7 7 19 19 7 0 0 0 0 0 0 0 0 7 7 7 7 7 7 7 7 11 11 7 11 3 11 11 7 11 9 9 11 9 4 17 13 9 13 9 9 13 15 15 15 15 15 15 15 5 15 5 18 18 18 18 17 18 18 18 18 
p56:
23931
1 1 1 1 1 1 1 1 1 1 1 1 1 1 0 1 1 0 1 1 1 1 1 1 1 1 1 1 1 1 
18 19 21 27 2 12 15 27 22 28 4 28 13 1 28 18 1 20 22 0 18 16 5 24 10 18 27 19 29 2 19 19 4 16 27 6 20 8 24 16 18 9 6 4 8 19 13 21 19 8 24 16 24 16 8 6 11 9 18 7 29 0 7 8 13 11 5 19 28 25 18 12 19 9 23 23 20 23 8 16 10 0 9 25 29 13 6 5 27 7 28 6 25 25 2 3 11 6 0 28 28 15 25 18 4 0 4 24 22 3 19 4 27 12 12 8 28 7 0 8 26 11 5 4 26 16 2 11 26 10 28 24 25 20 23 9 3 3 28 10 12 22 11 11 25 5 24 15 27 25 24 10 23 0 8 11 2 15 3 13 13 27 10 24 5 27 5 4 3 21 1 20 19 19 26 2 0 10 29 10 5 21 2 19 12 8 28 23 0 21 2 21 6 4 7 12 7 15 10 19 
p57:
32882
1 1 1 1 1 1 1 1 1 1 1 1 1 1 1 1 1 1 1 1 1 1 1 1 1 1 1 1 1 1 
18 19 21 27 2 12 15 27 22 28 4 28 13 1 28 18 1 20 22 0 18 16 5 24 10 18 27 19 29 2 19 19 4 16 27 6 20 8 24 16 18 9 6 4 8 19 13 21 19 14 24 16 24 16 8 6 11 9 18 7 29 0 7 8 13 11 5 14 28 25 18 12 19 9 23 23 20 23 8 16 10 0 9 25 29 13 6 5 27 7 28 6 25 25 2 3 11 6 0 28 28 15 25 18 4 0 4 24 22 3 19 4 27 12 12 8 28 7 17 8 26 11 17 19 26 16 2 11 26 17 28 24 25 20 23 9 3 3 28 10 12 22 11 11 25 5 24 15 27 25 24 17 23 0 8 11 2 15 3 13 13 27 10 24 5 27 5 4 3 21 1 20 19 14 26 2 0 10 29 10 5 21 2 19 12 8 28 23 0 21 2 21 6 4 7 12 7 15 10 19 
p58:
53882
1 1 1 1 1 1 1 1 1 1 1 1 1 1 1 1 1 1 1 1 1 1 1 1 1 1 1 1 1 1 
18 19 21 27 2 12 15 27 22 28 4 28 13 1 28 18 1 20 22 0 18 16 5 24 10 18 27 19 29 2 19 19 4 16 27 6 20 8 24 16 18 9 6 4 8 19 13 21 19 14 24 16 24 16 8 6 11 9 18 7 29 0 7 8 13 11 5 14 28 25 18 12 19 9 23 23 20 23 8 16 10 0 9 25 29 13 6 5 27 7 28 6 25 25 2 3 11 6 0 28 28 15 25 18 4 0 4 24 22 3 19 4 27 12 12 8 28 7 17 8 26 11 17 19 26 16 2 11 26 17 28 24 25 20 23 9 3 3 28 10 12 22 11 11 25 5 24 15 27 25 24 17 23 0 8 11 2 15 3 13 13 27 10 24 5 27 5 4 3 21 1 20 19 14 26 2 0 10 29 10 5 21 2 19 12 8 28 23 0 21 2 21 6 4 7 12 7 15 10 19 
p59:
39048
1 1 1 1 1 1 1 1 1 1 1 1 1 1 1 1 1 1 1 1 1 1 1 1 1 1 0 1 1 1 
18 19 21 27 2 12 15 27 22 28 4 28 13 1 28 18 1 20 22 0 18 16 5 24 10 18 27 19 29 2 19 19 4 16 27 6 20 8 24 16 18 9 6 4 8 19 13 21 19 14 24 16 24 16 8 6 11 9 18 7 29 0 7 8 13 11 5 14 28 25 18 12 19 9 23 23 20 23 8 16 10 0 9 25 29 13 6 5 27 7 28 6 25 25 2 3 11 6 0 28 28 15 25 18 4 0 4 24 22 3 19 4 27 12 12 8 28 7 17 8 10 11 17 19 17 16 2 11 29 17 28 24 25 20 23 9 3 3 28 10 12 22 11 11 25 5 24 15 27 25 24 17 23 0 8 11 2 15 3 13 13 27 10 24 5 27 5 4 3 21 1 20 19 14 2 2 0 10 29 10 5 21 2 19 12 8 28 23 0 21 2 21 6 4 7 12 7 15 10 19 
p60:
23882
1 1 1 1 1 1 1 1 1 1 1 1 1 1 1 1 1 1 1 1 1 1 1 1 1 1 1 1 1 1 
18 19 21 27 2 12 15 27 22 28 4 28 13 1 28 18 1 20 22 0 18 16 5 24 10 18 27 19 29 2 19 19 4 16 27 6 20 8 24 16 18 9 6 4 8 19 13 21 19 14 24 16 24 16 8 6 11 9 18 7 29 0 7 8 13 11 5 14 28 25 18 12 19 9 23 23 20 23 8 16 10 0 9 25 29 13 6 5 27 7 28 6 25 25 2 3 11 6 0 28 28 15 25 18 4 0 4 24 22 3 19 4 27 12 12 8 28 7 17 8 26 11 17 19 26 16 2 11 26 17 28 24 25 20 23 9 3 3 28 10 12 22 11 11 25 5 24 15 27 25 24 17 23 0 8 11 2 15 3 13 13 27 10 24 5 27 5 4 3 21 1 20 19 14 26 2 0 10 29 10 5 21 2 19 12 8 28 23 0 21 2 21 6 4 7 12 7 15 10 19 
p61:
32775
1 0 1 1 1 1 1 1 1 1 1 1 1 1 1 1 1 1 1 1 1 1 1 1 1 1 1 1 1 1 
18 19 21 27 2 12 15 27 22 28 4 28 13 3 28 18 17 20 22 0 18 16 5 24 10 18 27 19 29 2 19 19 4 16 27 6 20 8 24 16 18 9 6 4 8 19 13 21 19 14 24 16 24 16 8 6 11 9 18 7 29 0 7 8 13 11 5 14 28 25 18 12 19 9 23 23 20 23 8 16 10 0 9 25 29 13 6 5 27 7 28 6 25 25 2 3 11 6 0 28 28 15 25 18 4 0 4 24 22 3 19 4 27 12 12 8 28 7 17 8 26 11 17 19 26 16 2 11 26 17 28 24 25 20 23 9 3 3 28 10 12 22 11 11 25 5 24 15 27 25 24 17 23 0 8 11 2 15 3 13 13 27 10 24 5 27 5 4 3 21 8 20 19 14 26 2 0 10 29 10 5 21 2 19 12 8 28 23 0 21 2 21 6 4 7 12 7 15 10 19 
p62:
53882
1 1 1 1 1 1 1 1 1 1 1 1 1 1 1 1 1 1 1 1 1 1 1 1 1 1 1 1 1 1 
18 19 21 27 2 12 15 27 22 28 4 28 13 1 28 18 1 20 22 0 18 16 5 24 10 18 27 19 29 2 19 19 4 16 27 6 20 8 24 16 18 9 6 4 8 19 13 21 19 14 24 16 24 16 8 6 11 9 18 7 29 0 7 8 13 11 5 14 28 25 18 12 19 9 23 23 20 23 8 16 10 0 9 25 29 13 6 5 27 7 28 6 25 25 2 3 11 6 0 28 28 15 25 18 4 0 4 24 22 3 19 4 27 12 12 8 28 7 17 8 26 11 17 19 26 16 2 11 26 17 28 24 25 20 23 9 3 3 28 10 12 22 11 11 25 5 24 15 27 25 24 17 23 0 8 11 2 15 3 13 13 27 10 24 5 27 5 4 3 21 1 20 19 14 26 2 0 10 29 10 5 21 2 19 12 8 28 23 0 21 2 21 6 4 7 12 7 15 10 19 
p63:
39121
1 1 1 1 1 1 1 1 1 1 1 1 1 1 1 1 1 1 1 1 1 1 1 1 1 1 1 1 1 1 
18 19 21 27 2 12 15 27 22 28 4 28 13 1 28 18 1 20 22 0 18 16 5 24 10 18 27 19 29 2 19 19 4 16 27 6 20 8 24 16 18 9 6 4 8 19 13 21 19 14 24 16 24 16 8 6 11 9 18 7 29 0 7 8 13 11 5 14 28 25 18 12 19 9 23 23 20 23 8 16 10 0 9 25 29 13 6 5 27 7 28 6 25 25 2 3 11 6 0 28 28 15 25 18 4 0 4 24 22 3 19 4 27 12 12 8 28 7 17 8 26 11 17 19 26 16 2 11 26 17 28 24 25 20 23 9 3 3 28 10 12 22 11 11 25 5 24 15 27 25 24 17 23 0 8 11 2 15 3 13 13 27 10 24 5 27 5 4 3 21 1 20 19 14 26 2 0 10 29 10 5 21 2 19 12 8 28 23 0 21 2 21 6 4 7 12 7 15 10 19 
p64:
23882
1 1 1 1 1 1 1 1 1 1 1 1 1 1 1 1 1 1 1 1 1 1 1 1 1 1 1 1 1 1 
18 19 21 27 2 12 15 27 22 28 4 28 13 1 28 18 1 20 22 0 18 16 5 24 10 18 27 19 29 2 19 19 4 16 27 6 20 8 24 16 18 9 6 4 8 19 13 21 19 14 24 16 24 16 8 6 11 9 18 7 29 0 7 8 13 11 5 14 28 25 18 12 19 9 23 23 20 23 8 16 10 0 9 25 29 13 6 5 27 7 28 6 25 25 2 3 11 6 0 28 28 15 25 18 4 0 4 24 22 3 19 4 27 12 12 8 28 7 17 8 26 11 17 19 26 16 2 11 26 17 28 24 25 20 23 9 3 3 28 10 12 22 11 11 25 5 24 15 27 25 24 17 23 0 8 11 2 15 3 13 13 27 10 24 5 27 5 4 3 21 1 20 19 14 26 2 0 10 29 10 5 21 2 19 12 8 28 23 0 21 2 21 6 4 7 12 7 15 10 19 
p65:
33192
1 0 1 1 1 1 1 1 1 1 1 1 1 1 1 1 1 1 1 1 1 1 1 1 1 1 1 1 1 1 
18 19 21 27 2 12 15 27 22 28 4 28 13 17 28 18 21 20 22 0 18 16 5 24 10 18 27 19 29 2 19 19 4 16 27 6 20 8 24 16 18 9 6 4 8 19 13 21 19 14 24 16 24 16 8 6 11 9 18 7 29 0 7 8 13 11 5 14 28 25 18 12 19 9 23 23 20 23 8 16 10 0 9 25 29 13 6 5 27 7 28 6 25 25 2 3 11 6 0 28 28 15 25 18 4 0 4 24 22 3 19 4 27 12 12 8 28 7 17 8 26 11 17 19 26 16 2 11 26 17 28 24 25 20 23 9 3 3 28 10 12 22 11 11 25 5 24 15 27 25 24 17 23 0 8 11 2 15 3 13 13 27 10 24 5 27 5 4 3 21 28 20 19 14 26 2 0 10 29 10 5 21 2 19 12 8 28 23 0 21 2 21 6 4 7 12 7 15 10 19 
p66:
52864
1 1 1 1 1 1 1 1 1 1 1 1 1 1 1 1 1 0 1 1 1 1 1 1 1 1 1 1 1 1 
18 19 21 27 2 12 15 27 22 28 4 28 13 1 28 18 1 20 22 0 18 16 5 24 10 18 27 19 29 2 19 19 4 16 27 6 20 8 24 16 18 9 6 4 8 19 13 21 19 14 24 16 24 16 8 6 11 9 18 7 29 0 7 8 13 11 5 14 28 25 18 12 19 9 23 23 20 23 8 16 10 0 9 25 29 13 6 5 27 7 28 6 25 25 2 3 11 6 0 28 28 15 25 18 4 0 4 24 22 3 19 4 27 12 12 8 28 7 14 8 26 11 27 19 26 16 2 11 26 27 28 24 25 20 23 9 3 3 28 10 12 22 11 11 25 5 24 15 27 25 24 14 23 0 8 11 2 15 3 13 13 27 10 24 5 27 5 4 3 21 1 20 19 14 26 2 0 10 29 10 5 21 2 19 12 8 28 23 0 21 2 21 6 4 7 12 7 15 10 19 
p67:
39312
1 1 1 1 1 1 1 1 1 1 1 1 1 1 1 1 1 1 1 1 1 1 1 1 1 1 0 1 1 1 
18 19 21 22 2 12 15 27 22 28 4 28 13 1 28 18 1 20 22 0 18 16 5 24 10 18 27 19 29 2 19 19 4 16 27 6 20 8 24 15 18 9 6 8 8 19 13 21 19 14 24 16 24 16 8 6 11 9 18 25 29 0 7 8 13 11 5 14 28 25 7 12 19 9 23 23 20 23 8 16 10 0 9 25 29 13 19 5 27 7 28 6 25 25 2 3 27 6 0 28 28 15 25 18 4 0 4 24 22 3 19 4 27 12 12 8 28 7 17 8 4 11 17 19 10 16 2 11 12 17 28 24 25 20 23 9 3 3 28 10 12 22 11 11 25 5 24 15 27 25 24 17 23 0 8 11 2 15 3 13 13 27 10 24 5 27 5 4 3 21 1 20 19 14 9 2 0 10 29 10 5 21 2 19 12 8 28 23 0 21 2 21 6 4 7 12 7 15 10 19 
p68:
23882
1 1 1 1 1 1 1 1 1 1 1 1 1 1 1 1 1 1 1 1 1 1 1 1 1 1 1 1 1 1 
18 19 21 27 2 12 15 27 22 28 4 28 13 1 28 18 1 20 22 0 18 16 5 24 10 18 27 19 29 2 19 19 4 16 27 6 20 8 24 16 18 9 6 4 8 19 13 21 19 14 24 16 24 16 8 6 11 9 18 7 29 0 7 8 13 11 5 14 28 25 18 12 19 9 23 23 20 23 8 16 10 0 9 25 29 13 6 5 27 7 28 6 25 25 2 3 11 6 0 28 28 15 25 18 4 0 4 24 22 3 19 4 27 12 12 8 28 7 17 8 26 11 17 19 26 16 2 11 26 17 28 24 25 20 23 9 3 3 28 10 12 22 11 11 25 5 24 15 27 25 24 17 23 0 8 11 2 15 3 13 13 27 10 24 5 27 5 4 3 21 1 20 19 14 26 2 0 10 29 10 5 21 2 19 12 8 28 23 0 21 2 21 6 4 7 12 7 15 10 19 
p69:
32882
1 1 1 1 1 1 1 1 1 1 1 1 1 1 1 1 1 1 1 1 1 1 1 1 1 1 1 1 1 1 
18 19 21 27 2 12 15 27 22 28 4 28 13 1 28 18 1 20 22 0 18 16 5 24 10 18 27 19 29 2 19 19 4 16 27 6 20 8 24 16 18 9 6 4 8 19 13 21 19 14 24 16 24 16 8 6 11 9 18 7 29 0 7 8 13 11 5 14 28 25 18 12 19 9 23 23 20 23 8 16 10 0 9 25 29 13 6 5 27 7 28 6 25 25 2 3 11 6 0 28 28 15 25 18 4 0 4 24 22 3 19 4 27 12 12 8 28 7 17 8 26 11 17 19 26 16 2 11 26 17 28 24 25 20 23 9 3 3 28 10 12 22 11 11 25 5 24 15 27 25 24 17 23 0 8 11 2 15 3 13 13 27 10 24 5 27 5 4 3 21 1 20 19 14 26 2 0 10 29 10 5 21 2 19 12 8 28 23 0 21 2 21 6 4 7 12 7 15 10 19 
p70:
53882
1 1 1 1 1 1 1 1 1 1 1 1 1 1 1 1 1 1 1 1 1 1 1 1 1 1 1 1 1 1 
18 19 21 27 2 12 15 27 22 28 4 28 13 1 28 18 1 20 22 0 18 16 5 24 10 18 27 19 29 2 19 19 4 16 27 6 20 8 24 16 18 9 6 4 8 19 13 21 19 14 24 16 24 16 8 6 11 9 18 7 29 0 7 8 13 11 5 14 28 25 18 12 19 9 23 23 20 23 8 16 10 0 9 25 29 13 6 5 27 7 28 6 25 25 2 3 11 6 0 28 28 15 25 18 4 0 4 24 22 3 19 4 27 12 12 8 28 7 17 8 26 11 17 19 26 16 2 11 26 17 28 24 25 20 23 9 3 3 28 10 12 22 11 11 25 5 24 15 27 25 24 17 23 0 8 11 2 15 3 13 13 27 10 24 5 27 5 4 3 21 1 20 19 14 26 2 0 10 29 10 5 21 2 19 12 8 28 23 0 21 2 21 6 4 7 12 7 15 10 19 
p71:
39314
1 1 1 1 1 1 1 1 1 1 1 1 1 1 1 1 1 1 1 1 1 0 1 1 1 1 1 1 1 1 
18 19 26 27 2 12 15 27 22 28 4 28 13 1 28 18 1 20 22 0 18 16 5 24 10 18 27 19 29 2 19 19 4 16 27 6 20 8 24 16 18 9 6 4 8 19 13 27 19 14 24 16 24 16 8 6 11 9 18 7 29 0 7 8 13 11 5 14 28 25 18 12 19 9 23 23 20 23 8 16 10 0 9 25 29 13 6 5 27 7 28 6 25 25 2 3 11 6 0 28 28 15 25 18 4 0 4 24 22 3 19 4 27 12 12 8 28 7 17 8 26 11 17 19 26 16 2 11 26 17 28 24 25 20 23 9 3 3 28 10 12 22 11 11 25 5 24 15 27 25 24 17 23 0 8 11 2 15 3 13 13 27 10 24 5 27 5 4 3 7 1 20 19 14 26 2 0 10 29 10 5 15 2 19 12 8 28 23 0 0 2 24 6 4 7 12 7 15 10 19 
